# Maksymilian Neumann
data;

# Rodzaje ropy
set Crude := b1 b2;

# Zastosowania frakcji olejowej: "home" – paliwo domowe, "heavy" – paliwo ciężkie
set OilUsage := home heavy;

# Zastosowania destylatu: "heavy" – bezpośrednio paliwo ciężkie, "crack" – wysłany do krakingu
set DistillateUsage := heavy crack;

# Koszt zakupu ropy (w zł za tonę)
param costB :=
    b1 1300
    b2 1500;

# Frakcje destylacji dla poszczególnych produktów
param fracMotor :=
    b1 0.15
    b2 0.10;

param fracHome :=
    b1 0.40
    b2 0.35;

param fracDist :=
    b1 0.15
    b2 0.20;

param fracHeavy :=
    b1 0.15
    b2 0.25;

# Frakcje krakingu destylatu
param fracCrMotor := 0.50;
param fracCrHome  := 0.20;
param fracCrHeavy := 0.06;

# Koszty procesów (w zł za tonę)
param costDist  := 10;
param costCrack := 20;

# Zapotrzebowanie na produkty końcowe (w tonach)
param DemandMotor := 200000;
param DemandHome  := 400000;
param DemandHeavy := 250000;

# Limit zawartości siarki w paliwie domowym
param sLimitHome := 0.005;

# Zawartość siarki w oleju destylowanym (przeznaczonym na paliwo domowe)
param sHomeCrude :=
    b1 0.002
    b2 0.012;

# Zawartość siarki w oleju po krakingu (przeznaczonym na paliwo domowe)
param sHomeCrudeCr :=
    b1 0.003
    b2 0.025;
